(set-logic QF_SLIA)
(declare-fun var0 () String)
(assert (not (str.in_re var0 (re.++ ((_ re.loop 4 987) (re.++ (re.union (str.to_re "oyh") (re.union (str.to_re "ISN") (re.union (str.to_re "{0L") (str.to_re ",y3")))) (re.++ (re.union (str.to_re "k") (re.union (str.to_re "^\u0022`") (re.union (str.to_re "\u0022") (str.to_re "r")))) (re.++ (re.union (str.to_re "sP") (re.union (str.to_re ";K") (re.union (str.to_re "x") (str.to_re "D")))) (re.union (str.to_re "!q:") (re.union (str.to_re "smG") (re.union (str.to_re "@#") (str.to_re "8*")))))))) (re.++ ((_ re.loop 7 678) (re.++ (re.union (str.to_re "W") (re.union (str.to_re "AxG") (re.union (str.to_re "U<a") (str.to_re "Q4")))) (re.++ (re.union (str.to_re "W?") (re.union (str.to_re "K\\{") (re.union (str.to_re "1XD") (str.to_re "y51")))) (re.++ (re.union (str.to_re "F'a") (re.union (str.to_re "O+") (re.union (str.to_re "\\J+") (str.to_re "!")))) (re.union (str.to_re "Y.8") (re.union (str.to_re "EM") (re.union (str.to_re "u)U") (str.to_re "jQ")))))))) (re.++ ((_ re.loop 11 695) (re.++ (re.union (str.to_re "6K") (re.union (str.to_re "d") (re.union (str.to_re "&+&") (str.to_re "9")))) (re.++ (re.union (str.to_re ";je") (re.union (str.to_re "+") (re.union (str.to_re "f") (str.to_re "wW")))) (re.++ (re.union (str.to_re "C:P") (re.union (str.to_re "3") (re.union (str.to_re "P#1") (str.to_re "3[")))) (re.union (str.to_re "h") (re.union (str.to_re ".") (re.union (str.to_re "2[") (str.to_re "F")))))))) ((_ re.loop 8 627) (re.++ (re.union (str.to_re "umU") (re.union (str.to_re "cA") (re.union (str.to_re "J)") (str.to_re "u+")))) (re.++ (re.union (str.to_re "b*") (re.union (str.to_re "\\") (re.union (str.to_re "!") (str.to_re "Sx")))) (re.++ (re.union (str.to_re "0") (re.union (str.to_re "v") (re.union (str.to_re "QP)") (str.to_re ".")))) (re.union (str.to_re "I'") (re.union (str.to_re "MmM") (re.union (str.to_re "hB") (str.to_re "E6"))))))))))))))
(assert (not (str.in_re var0 (re.++ ((_ re.loop 6 953) (re.++ (re.union (str.to_re "h`R") (re.union (str.to_re "c}") (re.union (str.to_re "9~G") (str.to_re "nU#")))) (re.++ (re.union (str.to_re "s") (re.union (str.to_re "W") (re.union (str.to_re "Pe") (str.to_re "f")))) (re.++ (re.union (str.to_re "8R") (re.union (str.to_re "ukh") (re.union (str.to_re "hSt") (str.to_re "p,@")))) (re.union (str.to_re "XP") (re.union (str.to_re "w") (re.union (str.to_re "?N") (str.to_re "W")))))))) (re.++ ((_ re.loop 15 835) (re.++ (re.union (str.to_re "iTK") (re.union (str.to_re "P") (re.union (str.to_re "h|") (str.to_re "(.")))) (re.++ (re.union (str.to_re "r") (re.union (str.to_re "B") (re.union (str.to_re "QL") (str.to_re "yK'")))) (re.++ (re.union (str.to_re "[") (re.union (str.to_re "8N,") (re.union (str.to_re "h") (str.to_re "vo")))) (re.union (str.to_re "dl") (re.union (str.to_re "e]") (re.union (str.to_re "*") (str.to_re "?1")))))))) (re.++ ((_ re.loop 8 312) (re.++ (re.union (str.to_re "Bh") (re.union (str.to_re ";a") (re.union (str.to_re "}G\u0022") (str.to_re "+0")))) (re.++ (re.union (str.to_re "~.<") (re.union (str.to_re "G") (re.union (str.to_re "{Qu") (str.to_re "_`")))) (re.++ (re.union (str.to_re "b8") (re.union (str.to_re "'{V") (re.union (str.to_re "6KR") (str.to_re "_Vm")))) (re.union (str.to_re "ls\u0022") (re.union (str.to_re "~M") (re.union (str.to_re "H") (str.to_re "`^")))))))) ((_ re.loop 9 972) (re.++ (re.union (str.to_re ">E") (re.union (str.to_re ";i") (re.union (str.to_re "H") (str.to_re "t2")))) (re.++ (re.union (str.to_re "%x") (re.union (str.to_re "-") (re.union (str.to_re "Xu`") (str.to_re "p'")))) (re.++ (re.union (str.to_re "w&") (re.union (str.to_re "&B@") (re.union (str.to_re "?") (str.to_re "GeF")))) (re.union (str.to_re "&1~") (re.union (str.to_re "2") (re.union (str.to_re "G") (str.to_re ";%"))))))))))))))
(assert (not (str.in_re var0 (re.++ (re.* re.allchar) (re.++ (re.union (str.to_re "<") (re.union (str.to_re ">") (re.union (str.to_re "'") (re.union (str.to_re "\u0022") (str.to_re "&"))))) (re.* re.allchar))))))
(assert (<= 50 (str.len var0)))
(check-sat)
(get-model)
